38 103
3 195
8 144
22 48
33 71
3 111
44 90
84 68
70 5
66 36
19 153
59 69
60 17
30 75
27 18
11 55
68 20
52 60
40 78
31 62
31 29
36 32
19 165
42 91
15 187
16 10
23 42
75 59
43 87
16 109
20 95
25 41
22 25
29 26
14 63
96 11
18 111
85 54
39 88
67 22
51 11
6 122
3 174
88 37
58 3
21 134
93 15
6 45
56 106
45 11
